\ Model QCP
\ LP format - for model browsing. Use MPS format to capture full model detail.
Minimize
  z + 1.27 y
Subject To
 Cut_0: z + [ 0.7587719298245608 y ^2 ] >= 5364.315789473683
 Cut_1: z + [ 0.3269230769230771 y ^2 ] >= 4817.865384615385
 Cut_2: z + [ 0.0320855614973266 y ^2 ] >= 4330.069518716578
 Cut_3: z + [ 0.0320855614973266 y ^2 ] >= 4330.069518716578
 Cut_4: z + [ 0.0320855614973266 y ^2 ] >= 4330.069518716578
 Cut_5: z + [ 0.0320855614973266 y ^2 ] >= 4330.069518716578
 Cut_6: z + [ 0.0320855614973266 y ^2 ] >= 4330.069518716578
 Cut_7: z + [ 0.0320855614973266 y ^2 ] >= 4330.069518716578
 Cut_8: z + [ 0.0320855614973266 y ^2 ] >= 4330.069518716578
 Cut_9: z + [ 0.0320855614973266 y ^2 ] >= 4330.069518716578
Bounds
 4277 <= z <= 35002
 27.91057147390573 <= y <= 40.66939881532551
End
